#######################################
### Exact MIP solver for the HHCRSP ###
#######################################
-- Instance file: new-instances/HHCRSP_200_40_63_1.6_R_C.txt
-- Max threads: 4
-- Time limit: 999999 seconds
-- Use initial solution: No
Trivial flow violations prevented generating 355493 variables.
Version identifier: 20.1.0.0 | 2020-11-10 | 9bedb6d68
CPXPARAM_Threads                                 4
CPXPARAM_TimeLimit                               999999
Parallel mode: deterministic, using up to 4 threads for concurrent optimization:
 * Starting dual Simplex on 1 thread...
 * Starting Barrier on 3 threads...
Tried aggregator 1 time.
LP Presolve eliminated 22194 rows and 5530 columns.
Reduced LP has 424216 rows, 403560 columns, and 7524261 nonzeros.
Presolve time = 17.63 sec. (1737.51 ticks)
Symmetry aggregator did 660967 additional substitutions.

Iteration log . . .
Iteration:     1   Dual objective     =             0.000000
Iteration:   886   Dual objective     =           194.333333

Dual crossover.
  Dual:  Fixing 852 variables.
      851 DMoves:  Infeasibility  1.09640075e-12  Objective  1.97666667e+02
        0 DMoves:  Infeasibility  7.16982029e-13  Objective  1.97666667e+02
  Dual:  Pushed 36, exchanged 816.
  Primal:  Fixing 600 variables.
      599 PMoves:  Infeasibility  0.00000000e+00  Objective  1.97666667e+02
        0 PMoves:  Infeasibility  0.00000000e+00  Objective  1.97666667e+02
  Primal:  Pushed 517, exchanged 83.

Dual simplex solved model.


Solution status from MIP model:
-- Processing time: 26.858 sec.
-- Memory used: 456.312 MB
-- Best bound: inf
-- Obj value: 197.667
-- Gap: inf%
-- Total distance: 593
-- Total tardiness: 0
-- Largest tardiness: 0
